c User generated cnf file
p cnf 14 63
5 -14 8 0 
12 6 -10 0 
11 -5 2 0 
-6 10 6 0 
8 4 -2 0 
-6 8 10 0 
4 7 -5 0 
-14 6 5 0 
3 3 -2 0 
13 -4 11 0 
8 -7 2 0 
14 1 -1 0 
12 -10 9 0 
3 -7 8 0 
5 2 -6 0 
-6 13 13 0 
-10 10 11 0 
7 -9 6 0 
-14 1 3 0 
12 -4 10 0 
-13 11 6 0 
-5 8 4 0 
-6 10 3 0 
12 1 -5 0 
-7 11 10 0 
10 6 -7 0 
-10 6 2 0 
-9 1 2 0 
9 4 -9 0 
3 -13 1 0 
9 -10 10 0 
14 10 -1 0 
2 -11 13 0 
6 5 -4 0 
2 6 -2 0 
14 7 -12 0 
5 -5 12 0 
4 12 -10 0 
-12 12 10 0 
8 -7 7 0 
3 13 -8 0 
12 -11 6 0 
-13 5 13 0 
8 -12 14 0 
10 11 -1 0 
3 2 -11 0 
8 -13 9 0 
4 -12 11 0 
-2 3 8 0 
8 5 -1 0 
-8 4 5 0 
10 5 -1 0 
10 -12 13 0 
8 13 -5 0 
7 -8 4 0 
4 1 -11 0 
4 11 -8 0 
-1 7 13 0 
3 7 -14 0 
11 1 -9 0 
8 -7 5 0 
6 4 -1 0 
8 13 -2 0 
